p cnf 430 1488
-191 -123 0
-191 -34 0
-191 -55 0
-191 -152 0
-191 -29 0
191 123 34 55 152 29 0
-192 179 0
-192 30 0
-192 116 0
-192 -38 0
-192 -137 0
192 -179 -30 -116 38 137 0
-193 106 0
-193 -97 0
-193 -159 0
-193 -94 0
-193 -179 0
193 -106 97 159 94 179 0
-194 113 0
-194 -178 0
-194 -144 0
-194 -130 0
-194 -90 0
194 -113 178 144 130 90 0
-195 162 0
-195 -29 0
-195 -86 0
-195 -94 0
-195 -124 0
195 -162 29 86 94 124 0
191 192 193 194 195 0
-196 -74 0
-196 1 0
-196 166 0
-196 156 0
-196 125 0
196 74 -1 -166 -156 -125 0
-197 176 0
-197 -96 0
-197 108 0
-197 171 0
-197 12 0
197 -176 96 -108 -171 -12 0
-198 20 0
-198 -73 0
-198 -38 0
-198 91 0
-198 111 0
198 -20 73 38 -91 -111 0
-199 -65 0
-199 -125 0
-199 -85 0
-199 5 0
-199 -28 0
199 65 125 85 -5 28 0
-200 93 0
-200 -113 0
-200 144 0
-200 117 0
-200 -168 0
200 -93 113 -144 -117 168 0
196 197 198 199 200 0
-201 99 0
-201 151 0
-201 116 0
-201 -95 0
-201 177 0
201 -99 -151 -116 95 -177 0
-202 -21 0
-202 -115 0
-202 149 0
-202 100 0
-202 -70 0
202 21 115 -149 -100 70 0
-203 16 0
-203 -156 0
-203 -90 0
-203 97 0
-203 -99 0
203 -16 156 90 -97 99 0
-204 -124 0
-204 62 0
-204 -82 0
-204 36 0
-204 -42 0
204 124 -62 82 -36 42 0
-205 -144 0
-205 135 0
-205 42 0
-205 -27 0
-205 -179 0
205 144 -135 -42 27 179 0
201 202 203 204 205 0
-206 19 0
-206 129 0
-206 57 0
-206 -74 0
-206 180 0
206 -19 -129 -57 74 -180 0
-207 -48 0
-207 137 0
-207 -93 0
-207 68 0
-207 102 0
207 48 -137 93 -68 -102 0
-208 99 0
-208 -68 0
-208 49 0
-208 134 0
-208 -96 0
208 -99 68 -49 -134 96 0
-209 80 0
-209 -101 0
-209 -113 0
-209 102 0
-209 75 0
209 -80 101 113 -102 -75 0
-210 -116 0
-210 -163 0
-210 74 0
-210 -174 0
-210 4 0
210 116 163 -74 174 -4 0
206 207 208 209 210 0
-211 73 0
-211 150 0
-211 -163 0
-211 -131 0
-211 127 0
211 -73 -150 163 131 -127 0
-212 -138 0
-212 20 0
-212 32 0
-212 -118 0
-212 91 0
212 138 -20 -32 118 -91 0
-213 -32 0
-213 -45 0
-213 -140 0
-213 -63 0
-213 -5 0
213 32 45 140 63 5 0
-214 -2 0
-214 -109 0
-214 -90 0
-214 -25 0
-214 -73 0
214 2 109 90 25 73 0
-215 157 0
-215 -181 0
-215 -60 0
-215 -22 0
-215 -10 0
215 -157 181 60 22 10 0
211 212 213 214 215 0
-216 -78 0
-216 -101 0
-216 151 0
-216 102 0
-216 129 0
216 78 101 -151 -102 -129 0
-217 90 0
-217 176 0
-217 188 0
-217 160 0
-217 131 0
217 -90 -176 -188 -160 -131 0
-218 -41 0
-218 175 0
-218 -158 0
-218 23 0
-218 177 0
218 41 -175 158 -23 -177 0
-219 175 0
-219 -145 0
-219 -181 0
-219 170 0
-219 -30 0
219 -175 145 181 -170 30 0
-220 -69 0
-220 -4 0
-220 104 0
-220 169 0
-220 56 0
220 69 4 -104 -169 -56 0
216 217 218 219 220 0
-221 -7 0
-221 156 0
-221 102 0
-221 57 0
-221 -117 0
221 7 -156 -102 -57 117 0
-222 -154 0
-222 4 0
-222 -9 0
-222 -106 0
-222 -78 0
222 154 -4 9 106 78 0
-223 -38 0
-223 -24 0
-223 17 0
-223 160 0
-223 12 0
223 38 24 -17 -160 -12 0
-224 88 0
-224 11 0
-224 68 0
-224 160 0
-224 30 0
224 -88 -11 -68 -160 -30 0
-225 -174 0
-225 82 0
-225 18 0
-225 -110 0
-225 -126 0
225 174 -82 -18 110 126 0
221 222 223 224 225 0
-226 190 0
-226 -64 0
-226 -126 0
-226 -155 0
-226 -50 0
226 -190 64 126 155 50 0
-227 -139 0
-227 25 0
-227 66 0
-227 47 0
-227 26 0
227 139 -25 -66 -47 -26 0
-228 -4 0
-228 -20 0
-228 101 0
-228 -59 0
-228 -172 0
228 4 20 -101 59 172 0
-229 -26 0
-229 136 0
-229 -121 0
-229 -171 0
-229 131 0
229 26 -136 121 171 -131 0
-230 46 0
-230 170 0
-230 -90 0
-230 24 0
-230 126 0
230 -46 -170 90 -24 -126 0
226 227 228 229 230 0
-231 -44 0
-231 110 0
-231 108 0
-231 -2 0
-231 -183 0
231 44 -110 -108 2 183 0
-232 -70 0
-232 79 0
-232 33 0
-232 -50 0
-232 98 0
232 70 -79 -33 50 -98 0
-233 -34 0
-233 13 0
-233 -75 0
-233 -116 0
-233 -73 0
233 34 -13 75 116 73 0
-234 45 0
-234 -12 0
-234 -23 0
-234 51 0
-234 124 0
234 -45 12 23 -51 -124 0
-235 79 0
-235 -113 0
-235 123 0
-235 -180 0
-235 15 0
235 -79 113 -123 180 -15 0
231 232 233 234 235 0
-236 -9 0
-236 -64 0
-236 -63 0
-236 118 0
-236 -19 0
236 9 64 63 -118 19 0
-237 142 0
-237 -96 0
-237 35 0
-237 58 0
-237 -141 0
237 -142 96 -35 -58 141 0
-238 -19 0
-238 -50 0
-238 -94 0
-238 -62 0
-238 121 0
238 19 50 94 62 -121 0
-239 -150 0
-239 31 0
-239 1 0
-239 -163 0
-239 122 0
239 150 -31 -1 163 -122 0
-240 46 0
-240 10 0
-240 -167 0
-240 186 0
-240 54 0
240 -46 -10 167 -186 -54 0
236 237 238 239 240 0
-241 -154 0
-241 -164 0
-241 -52 0
-241 -116 0
-241 107 0
241 154 164 52 116 -107 0
-242 -110 0
-242 178 0
-242 -126 0
-242 -189 0
-242 -121 0
242 110 -178 126 189 121 0
-243 -142 0
-243 132 0
-243 -125 0
-243 -101 0
-243 56 0
243 142 -132 125 101 -56 0
-244 26 0
-244 -55 0
-244 177 0
-244 100 0
-244 -123 0
244 -26 55 -177 -100 123 0
-245 8 0
-245 5 0
-245 150 0
-245 22 0
-245 -147 0
245 -8 -5 -150 -22 147 0
241 242 243 244 245 0
-246 -140 0
-246 -163 0
-246 -88 0
-246 69 0
-246 -55 0
246 140 163 88 -69 55 0
-247 43 0
-247 -175 0
-247 -97 0
-247 114 0
-247 71 0
247 -43 175 97 -114 -71 0
-248 49 0
-248 -46 0
-248 85 0
-248 142 0
-248 106 0
248 -49 46 -85 -142 -106 0
-249 -140 0
-249 -160 0
-249 -129 0
-249 -152 0
-249 -29 0
249 140 160 129 152 29 0
-250 -161 0
-250 -65 0
-250 -140 0
-250 64 0
-250 -172 0
250 161 65 140 -64 172 0
246 247 248 249 250 0
-251 87 0
-251 97 0
-251 43 0
-251 67 0
-251 -19 0
251 -87 -97 -43 -67 19 0
-252 -102 0
-252 182 0
-252 19 0
-252 74 0
-252 71 0
252 102 -182 -19 -74 -71 0
-253 -116 0
-253 5 0
-253 -118 0
-253 79 0
-253 -182 0
253 116 -5 118 -79 182 0
-254 27 0
-254 48 0
-254 -121 0
-254 -1 0
-254 43 0
254 -27 -48 121 1 -43 0
-255 146 0
-255 -118 0
-255 -167 0
-255 29 0
-255 -100 0
255 -146 118 167 -29 100 0
251 252 253 254 255 0
-256 144 0
-256 154 0
-256 -4 0
-256 -38 0
-256 -159 0
256 -144 -154 4 38 159 0
-257 -80 0
-257 -61 0
-257 -2 0
-257 -170 0
-257 20 0
257 80 61 2 170 -20 0
-258 -20 0
-258 -169 0
-258 -118 0
-258 -72 0
-258 -48 0
258 20 169 118 72 48 0
-259 -148 0
-259 142 0
-259 117 0
-259 -176 0
-259 90 0
259 148 -142 -117 176 -90 0
-260 -146 0
-260 2 0
-260 -94 0
-260 -35 0
-260 173 0
260 146 -2 94 35 -173 0
256 257 258 259 260 0
-261 155 0
-261 65 0
-261 88 0
-261 159 0
-261 -5 0
261 -155 -65 -88 -159 5 0
-262 113 0
-262 -82 0
-262 -157 0
-262 186 0
-262 -48 0
262 -113 82 157 -186 48 0
-263 48 0
-263 -183 0
-263 33 0
-263 -119 0
-263 -161 0
263 -48 183 -33 119 161 0
-264 118 0
-264 -190 0
-264 43 0
-264 186 0
-264 99 0
264 -118 190 -43 -186 -99 0
-265 136 0
-265 149 0
-265 162 0
-265 -80 0
-265 -184 0
265 -136 -149 -162 80 184 0
261 262 263 264 265 0
-266 -26 0
-266 156 0
-266 92 0
-266 96 0
-266 134 0
266 26 -156 -92 -96 -134 0
-267 -64 0
-267 -162 0
-267 180 0
-267 15 0
-267 -82 0
267 64 162 -180 -15 82 0
-268 -133 0
-268 -157 0
-268 -140 0
-268 -48 0
-268 49 0
268 133 157 140 48 -49 0
-269 -20 0
-269 39 0
-269 186 0
-269 -65 0
-269 4 0
269 20 -39 -186 65 -4 0
-270 -105 0
-270 -101 0
-270 -44 0
-270 22 0
-270 -89 0
270 105 101 44 -22 89 0
266 267 268 269 270 0
-271 -138 0
-271 -98 0
-271 -93 0
-271 66 0
-271 4 0
271 138 98 93 -66 -4 0
-272 -85 0
-272 136 0
-272 -76 0
-272 -113 0
-272 -27 0
272 85 -136 76 113 27 0
-273 131 0
-273 56 0
-273 -60 0
-273 -35 0
-273 -108 0
273 -131 -56 60 35 108 0
-274 -106 0
-274 188 0
-274 -66 0
-274 163 0
-274 152 0
274 106 -188 66 -163 -152 0
-275 70 0
-275 11 0
-275 -127 0
-275 -157 0
-275 115 0
275 -70 -11 127 157 -115 0
271 272 273 274 275 0
-276 88 0
-276 -77 0
-276 117 0
-276 -138 0
-276 -72 0
276 -88 77 -117 138 72 0
-277 158 0
-277 59 0
-277 -13 0
-277 33 0
-277 82 0
277 -158 -59 13 -33 -82 0
-278 170 0
-278 -79 0
-278 -12 0
-278 -37 0
-278 5 0
278 -170 79 12 37 -5 0
-279 -89 0
-279 -5 0
-279 80 0
-279 37 0
-279 -161 0
279 89 5 -80 -37 161 0
-280 -150 0
-280 68 0
-280 -154 0
-280 -98 0
-280 -90 0
280 150 -68 154 98 90 0
276 277 278 279 280 0
-281 -136 0
-281 36 0
-281 112 0
-281 -55 0
-281 66 0
281 136 -36 -112 55 -66 0
-282 -159 0
-282 -137 0
-282 -10 0
-282 -102 0
-282 -128 0
282 159 137 10 102 128 0
-283 41 0
-283 60 0
-283 184 0
-283 -113 0
-283 55 0
283 -41 -60 -184 113 -55 0
-284 -49 0
-284 88 0
-284 165 0
-284 41 0
-284 5 0
284 49 -88 -165 -41 -5 0
-285 -91 0
-285 -110 0
-285 -26 0
-285 13 0
-285 -149 0
285 91 110 26 -13 149 0
281 282 283 284 285 0
-286 178 0
-286 -112 0
-286 -65 0
-286 33 0
-286 157 0
286 -178 112 65 -33 -157 0
-287 -69 0
-287 -9 0
-287 -102 0
-287 -58 0
-287 -63 0
287 69 9 102 58 63 0
-288 -101 0
-288 -185 0
-288 27 0
-288 -91 0
-288 -21 0
288 101 185 -27 91 21 0
-289 -73 0
-289 150 0
-289 122 0
-289 27 0
-289 132 0
289 73 -150 -122 -27 -132 0
-290 -177 0
-290 -136 0
-290 -93 0
-290 76 0
-290 -47 0
290 177 136 93 -76 47 0
286 287 288 289 290 0
-291 -108 0
-291 -76 0
-291 -68 0
-291 -156 0
-291 -186 0
291 108 76 68 156 186 0
-292 -58 0
-292 45 0
-292 -98 0
-292 -153 0
-292 -142 0
292 58 -45 98 153 142 0
-293 37 0
-293 -26 0
-293 8 0
-293 96 0
-293 121 0
293 -37 26 -8 -96 -121 0
-294 -39 0
-294 121 0
-294 184 0
-294 -167 0
-294 76 0
294 39 -121 -184 167 -76 0
-295 -21 0
-295 110 0
-295 100 0
-295 108 0
-295 127 0
295 21 -110 -100 -108 -127 0
291 292 293 294 295 0
-296 -58 0
-296 15 0
-296 -44 0
-296 -33 0
-296 -139 0
296 58 -15 44 33 139 0
-297 -155 0
-297 -79 0
-297 -92 0
-297 127 0
-297 95 0
297 155 79 92 -127 -95 0
-298 25 0
-298 -16 0
-298 -132 0
-298 91 0
-298 -172 0
298 -25 16 132 -91 172 0
-299 -92 0
-299 59 0
-299 -44 0
-299 -11 0
-299 101 0
299 92 -59 44 11 -101 0
-300 173 0
-300 -63 0
-300 37 0
-300 -10 0
-300 -86 0
300 -173 63 -37 10 86 0
296 297 298 299 300 0
-301 109 0
-301 16 0
-301 -87 0
-301 28 0
-301 -115 0
301 -109 -16 87 -28 115 0
-302 -115 0
-302 174 0
-302 -141 0
-302 83 0
-302 20 0
302 115 -174 141 -83 -20 0
-303 72 0
-303 134 0
-303 -45 0
-303 111 0
-303 -91 0
303 -72 -134 45 -111 91 0
-304 188 0
-304 -38 0
-304 131 0
-304 144 0
-304 187 0
304 -188 38 -131 -144 -187 0
-305 123 0
-305 36 0
-305 187 0
-305 -49 0
-305 -132 0
305 -123 -36 -187 49 132 0
301 302 303 304 305 0
-306 184 0
-306 -98 0
-306 -86 0
-306 -12 0
-306 170 0
306 -184 98 86 12 -170 0
-307 5 0
-307 -77 0
-307 148 0
-307 116 0
-307 -91 0
307 -5 77 -148 -116 91 0
-308 -72 0
-308 112 0
-308 105 0
-308 -111 0
-308 166 0
308 72 -112 -105 111 -166 0
-309 -46 0
-309 -29 0
-309 -153 0
-309 -96 0
-309 -116 0
309 46 29 153 96 116 0
-310 -178 0
-310 -188 0
-310 -78 0
-310 109 0
-310 164 0
310 178 188 78 -109 -164 0
306 307 308 309 310 0
-311 -48 0
-311 35 0
-311 53 0
-311 -40 0
-311 -75 0
311 48 -35 -53 40 75 0
-312 80 0
-312 1 0
-312 153 0
-312 33 0
-312 189 0
312 -80 -1 -153 -33 -189 0
-313 -32 0
-313 147 0
-313 -35 0
-313 -59 0
-313 -42 0
313 32 -147 35 59 42 0
-314 42 0
-314 167 0
-314 57 0
-314 21 0
-314 -46 0
314 -42 -167 -57 -21 46 0
-315 51 0
-315 143 0
-315 -13 0
-315 58 0
-315 -165 0
315 -51 -143 13 -58 165 0
311 312 313 314 315 0
-316 -107 0
-316 -145 0
-316 34 0
-316 86 0
-316 11 0
316 107 145 -34 -86 -11 0
-317 4 0
-317 162 0
-317 89 0
-317 172 0
-317 74 0
317 -4 -162 -89 -172 -74 0
-318 -178 0
-318 98 0
-318 153 0
-318 -49 0
-318 -69 0
318 178 -98 -153 49 69 0
-319 -30 0
-319 140 0
-319 -76 0
-319 -86 0
-319 84 0
319 30 -140 76 86 -84 0
-320 15 0
-320 -152 0
-320 -150 0
-320 104 0
-320 -105 0
320 -15 152 150 -104 105 0
316 317 318 319 320 0
-321 -35 0
-321 10 0
-321 -141 0
-321 72 0
-321 -142 0
321 35 -10 141 -72 142 0
-322 161 0
-322 88 0
-322 5 0
-322 32 0
-322 21 0
322 -161 -88 -5 -32 -21 0
-323 -24 0
-323 129 0
-323 8 0
-323 -117 0
-323 31 0
323 24 -129 -8 117 -31 0
-324 -119 0
-324 68 0
-324 -178 0
-324 180 0
-324 -172 0
324 119 -68 178 -180 172 0
-325 -115 0
-325 128 0
-325 -54 0
-325 151 0
-325 -186 0
325 115 -128 54 -151 186 0
321 322 323 324 325 0
-326 -148 0
-326 104 0
-326 4 0
-326 24 0
-326 133 0
326 148 -104 -4 -24 -133 0
-327 -27 0
-327 -160 0
-327 103 0
-327 118 0
-327 129 0
327 27 160 -103 -118 -129 0
-328 86 0
-328 -93 0
-328 81 0
-328 94 0
-328 176 0
328 -86 93 -81 -94 -176 0
-329 148 0
-329 28 0
-329 51 0
-329 -12 0
-329 185 0
329 -148 -28 -51 12 -185 0
-330 25 0
-330 -3 0
-330 -118 0
-330 100 0
-330 9 0
330 -25 3 118 -100 -9 0
326 327 328 329 330 0
-331 -57 0
-331 39 0
-331 -51 0
-331 -48 0
-331 163 0
331 57 -39 51 48 -163 0
-332 -60 0
-332 -127 0
-332 -178 0
-332 -190 0
-332 92 0
332 60 127 178 190 -92 0
-333 -1 0
-333 69 0
-333 78 0
-333 -89 0
-333 142 0
333 1 -69 -78 89 -142 0
-334 -10 0
-334 -176 0
-334 -84 0
-334 88 0
-334 -190 0
334 10 176 84 -88 190 0
-335 127 0
-335 52 0
-335 -4 0
-335 166 0
-335 -29 0
335 -127 -52 4 -166 29 0
331 332 333 334 335 0
-336 44 0
-336 43 0
-336 -162 0
-336 90 0
-336 -89 0
336 -44 -43 162 -90 89 0
-337 -42 0
-337 117 0
-337 -45 0
-337 124 0
-337 33 0
337 42 -117 45 -124 -33 0
-338 115 0
-338 -59 0
-338 96 0
-338 78 0
-338 -91 0
338 -115 59 -96 -78 91 0
-339 75 0
-339 97 0
-339 12 0
-339 -6 0
-339 -88 0
339 -75 -97 -12 6 88 0
-340 27 0
-340 96 0
-340 -91 0
-340 -39 0
-340 -131 0
340 -27 -96 91 39 131 0
336 337 338 339 340 0
-341 -109 0
-341 -3 0
-341 14 0
-341 -127 0
-341 -150 0
341 109 3 -14 127 150 0
-342 -3 0
-342 -146 0
-342 -35 0
-342 -60 0
-342 183 0
342 3 146 35 60 -183 0
-343 134 0
-343 -19 0
-343 -129 0
-343 71 0
-343 -20 0
343 -134 19 129 -71 20 0
-344 109 0
-344 73 0
-344 -145 0
-344 149 0
-344 -29 0
344 -109 -73 145 -149 29 0
-345 46 0
-345 -146 0
-345 157 0
-345 -14 0
-345 -51 0
345 -46 146 -157 14 51 0
341 342 343 344 345 0
-346 190 0
-346 -15 0
-346 104 0
-346 38 0
-346 -142 0
346 -190 15 -104 -38 142 0
-347 149 0
-347 -42 0
-347 -93 0
-347 6 0
-347 -102 0
347 -149 42 93 -6 102 0
-348 115 0
-348 75 0
-348 172 0
-348 -84 0
-348 -145 0
348 -115 -75 -172 84 145 0
-349 69 0
-349 114 0
-349 -82 0
-349 42 0
-349 -189 0
349 -69 -114 82 -42 189 0
-350 133 0
-350 152 0
-350 -143 0
-350 5 0
-350 -50 0
350 -133 -152 143 -5 50 0
346 347 348 349 350 0
-351 132 0
-351 -161 0
-351 80 0
-351 -167 0
-351 45 0
351 -132 161 -80 167 -45 0
-352 -118 0
-352 68 0
-352 -119 0
-352 -156 0
-352 43 0
352 118 -68 119 156 -43 0
-353 63 0
-353 40 0
-353 96 0
-353 -171 0
-353 187 0
353 -63 -40 -96 171 -187 0
-354 93 0
-354 153 0
-354 -98 0
-354 53 0
-354 149 0
354 -93 -153 98 -53 -149 0
-355 -99 0
-355 71 0
-355 14 0
-355 116 0
-355 152 0
355 99 -71 -14 -116 -152 0
351 352 353 354 355 0
-356 18 0
-356 -81 0
-356 172 0
-356 -100 0
-356 111 0
356 -18 81 -172 100 -111 0
-357 23 0
-357 -149 0
-357 -51 0
-357 -146 0
-357 -9 0
357 -23 149 51 146 9 0
-358 142 0
-358 41 0
-358 160 0
-358 91 0
-358 -68 0
358 -142 -41 -160 -91 68 0
-359 38 0
-359 -24 0
-359 -130 0
-359 -132 0
-359 -51 0
359 -38 24 130 132 51 0
-360 -83 0
-360 3 0
-360 -9 0
-360 -114 0
-360 -142 0
360 83 -3 9 114 142 0
356 357 358 359 360 0
-361 -27 0
-361 -116 0
-361 -190 0
-361 -120 0
-361 -75 0
361 27 116 190 120 75 0
-362 51 0
-362 65 0
-362 -54 0
-362 27 0
-362 154 0
362 -51 -65 54 -27 -154 0
-363 -11 0
-363 181 0
-363 -9 0
-363 43 0
-363 -20 0
363 11 -181 9 -43 20 0
-364 -25 0
-364 4 0
-364 156 0
-364 159 0
-364 184 0
364 25 -4 -156 -159 -184 0
-365 61 0
-365 -176 0
-365 65 0
-365 -132 0
-365 -22 0
365 -61 176 -65 132 22 0
361 362 363 364 365 0
-366 115 0
-366 -116 0
-366 -121 0
-366 90 0
-366 186 0
366 -115 116 121 -90 -186 0
-367 -121 0
-367 -17 0
-367 -159 0
-367 85 0
-367 57 0
367 121 17 159 -85 -57 0
-368 -131 0
-368 112 0
-368 38 0
-368 5 0
-368 -19 0
368 131 -112 -38 -5 19 0
-369 -70 0
-369 14 0
-369 134 0
-369 143 0
-369 -42 0
369 70 -14 -134 -143 42 0
-370 158 0
-370 53 0
-370 -56 0
-370 94 0
-370 -78 0
370 -158 -53 56 -94 78 0
366 367 368 369 370 0
-371 50 0
-371 -34 0
-371 -77 0
-371 162 0
-371 81 0
371 -50 34 77 -162 -81 0
-372 47 0
-372 117 0
-372 127 0
-372 -160 0
-372 -95 0
372 -47 -117 -127 160 95 0
-373 -125 0
-373 111 0
-373 -152 0
-373 8 0
-373 185 0
373 125 -111 152 -8 -185 0
-374 98 0
-374 -54 0
-374 -94 0
-374 174 0
-374 -21 0
374 -98 54 94 -174 21 0
-375 187 0
-375 -15 0
-375 20 0
-375 -81 0
-375 -78 0
375 -187 15 -20 81 78 0
371 372 373 374 375 0
-376 -75 0
-376 95 0
-376 -170 0
-376 -59 0
-376 -35 0
376 75 -95 170 59 35 0
-377 17 0
-377 49 0
-377 -180 0
-377 27 0
-377 20 0
377 -17 -49 180 -27 -20 0
-378 -38 0
-378 78 0
-378 -33 0
-378 -71 0
-378 -176 0
378 38 -78 33 71 176 0
-379 -145 0
-379 61 0
-379 -87 0
-379 125 0
-379 136 0
379 145 -61 87 -125 -136 0
-380 -78 0
-380 -48 0
-380 -61 0
-380 12 0
-380 182 0
380 78 48 61 -12 -182 0
376 377 378 379 380 0
-381 -44 0
-381 -70 0
-381 42 0
-381 -114 0
-381 182 0
381 44 70 -42 114 -182 0
-382 104 0
-382 -109 0
-382 24 0
-382 -75 0
-382 152 0
382 -104 109 -24 75 -152 0
-383 -89 0
-383 -137 0
-383 187 0
-383 -92 0
-383 -130 0
383 89 137 -187 92 130 0
-384 176 0
-384 -181 0
-384 31 0
-384 -189 0
-384 -75 0
384 -176 181 -31 189 75 0
-385 -8 0
-385 -70 0
-385 -166 0
-385 -62 0
-385 -100 0
385 8 70 166 62 100 0
381 382 383 384 385 0
-386 157 0
-386 -113 0
-386 -178 0
-386 145 0
-386 -55 0
386 -157 113 178 -145 55 0
-387 -82 0
-387 -147 0
-387 -94 0
-387 151 0
-387 110 0
387 82 147 94 -151 -110 0
-388 -48 0
-388 -163 0
-388 51 0
-388 76 0
-388 -125 0
388 48 163 -51 -76 125 0
-389 86 0
-389 -136 0
-389 138 0
-389 -178 0
-389 66 0
389 -86 136 -138 178 -66 0
-390 -109 0
-390 32 0
-390 -138 0
-390 -58 0
-390 83 0
390 109 -32 138 58 -83 0
386 387 388 389 390 0
-391 -189 0
-391 -108 0
-391 -127 0
-391 -155 0
-391 152 0
391 189 108 127 155 -152 0
-392 -46 0
-392 31 0
-392 -32 0
-392 -62 0
-392 -57 0
392 46 -31 32 62 57 0
-393 95 0
-393 54 0
-393 -29 0
-393 154 0
-393 186 0
393 -95 -54 29 -154 -186 0
-394 70 0
-394 88 0
-394 17 0
-394 -84 0
-394 -9 0
394 -70 -88 -17 84 9 0
-395 47 0
-395 -157 0
-395 46 0
-395 -45 0
-395 -107 0
395 -47 157 -46 45 107 0
391 392 393 394 395 0
-396 101 0
-396 51 0
-396 97 0
-396 -96 0
-396 9 0
396 -101 -51 -97 96 -9 0
-397 94 0
-397 -115 0
-397 165 0
-397 155 0
-397 88 0
397 -94 115 -165 -155 -88 0
-398 -150 0
-398 -190 0
-398 -8 0
-398 -177 0
-398 -1 0
398 150 190 8 177 1 0
-399 89 0
-399 -184 0
-399 -12 0
-399 -25 0
-399 -113 0
399 -89 184 12 25 113 0
-400 143 0
-400 80 0
-400 82 0
-400 -67 0
-400 97 0
400 -143 -80 -82 67 -97 0
396 397 398 399 400 0
-401 41 0
-401 110 0
-401 -180 0
-401 -17 0
-401 -87 0
401 -41 -110 180 17 87 0
-402 80 0
-402 -183 0
-402 -84 0
-402 190 0
-402 145 0
402 -80 183 84 -190 -145 0
-403 12 0
-403 66 0
-403 136 0
-403 -73 0
-403 -143 0
403 -12 -66 -136 73 143 0
-404 95 0
-404 -98 0
-404 -44 0
-404 184 0
-404 -102 0
404 -95 98 44 -184 102 0
-405 83 0
-405 9 0
-405 12 0
-405 -126 0
-405 -60 0
405 -83 -9 -12 126 60 0
401 402 403 404 405 0
-406 62 0
-406 172 0
-406 -42 0
-406 142 0
-406 -53 0
406 -62 -172 42 -142 53 0
-407 -87 0
-407 69 0
-407 -147 0
-407 -139 0
-407 17 0
407 87 -69 147 139 -17 0
-408 -94 0
-408 101 0
-408 147 0
-408 118 0
-408 -135 0
408 94 -101 -147 -118 135 0
-409 55 0
-409 116 0
-409 -131 0
-409 -150 0
-409 -36 0
409 -55 -116 131 150 36 0
-410 59 0
-410 -71 0
-410 188 0
-410 -136 0
-410 113 0
410 -59 71 -188 136 -113 0
406 407 408 409 410 0
-411 52 0
-411 -27 0
-411 141 0
-411 -185 0
-411 -108 0
411 -52 27 -141 185 108 0
-412 55 0
-412 97 0
-412 59 0
-412 -32 0
-412 -62 0
412 -55 -97 -59 32 62 0
-413 70 0
-413 67 0
-413 -88 0
-413 -114 0
-413 -79 0
413 -70 -67 88 114 79 0
-414 156 0
-414 -112 0
-414 101 0
-414 9 0
-414 -124 0
414 -156 112 -101 -9 124 0
-415 182 0
-415 -134 0
-415 149 0
-415 -61 0
-415 -118 0
415 -182 134 -149 61 118 0
411 412 413 414 415 0
-416 163 0
-416 126 0
-416 130 0
-416 44 0
-416 109 0
416 -163 -126 -130 -44 -109 0
-417 44 0
-417 -137 0
-417 -95 0
-417 -71 0
-417 -97 0
417 -44 137 95 71 97 0
-418 -69 0
-418 -15 0
-418 -143 0
-418 -70 0
-418 187 0
418 69 15 143 70 -187 0
-419 46 0
-419 190 0
-419 14 0
-419 -164 0
-419 -147 0
419 -46 -190 -14 164 147 0
-420 -60 0
-420 113 0
-420 -137 0
-420 -72 0
-420 184 0
420 60 -113 137 72 -184 0
416 417 418 419 420 0
-421 -67 0
-421 -9 0
-421 165 0
-421 -63 0
-421 -179 0
421 67 9 -165 63 179 0
-422 177 0
-422 -167 0
-422 -144 0
-422 -125 0
-422 164 0
422 -177 167 144 125 -164 0
-423 -40 0
-423 21 0
-423 -86 0
-423 56 0
-423 91 0
423 40 -21 86 -56 -91 0
-424 -177 0
-424 -24 0
-424 -51 0
-424 -53 0
-424 40 0
424 177 24 51 53 -40 0
-425 -115 0
-425 188 0
-425 -70 0
-425 26 0
-425 -27 0
425 115 -188 70 -26 27 0
421 422 423 424 425 0
-426 72 0
-426 30 0
-426 -68 0
-426 131 0
-426 -148 0
426 -72 -30 68 -131 148 0
-427 -86 0
-427 -24 0
-427 163 0
-427 -96 0
-427 97 0
427 86 24 -163 96 -97 0
-428 129 0
-428 -123 0
-428 126 0
-428 61 0
-428 139 0
428 -129 123 -126 -61 -139 0
-429 63 0
-429 -92 0
-429 111 0
-429 -90 0
-429 17 0
429 -63 92 -111 90 -17 0
-430 -190 0
-430 -19 0
-430 177 0
-430 -11 0
-430 -171 0
430 190 19 -177 11 171 0
426 427 428 429 430 0
